126 5
10 10 10 10 10 

0 0 0 0 0 0 2 2 14 
0 0 0 0 0 0 4 3 4 6 17 
10 2 0 0 0 0 1 5 
1 9 0 0 0 0 1 5 
1 8 0 0 0 0 1 7 
7 6 0 0 0 0 1 7 
5 9 0 0 0 0 1 8 
5 7 0 0 0 0 1 9 
10 7 0 0 0 0 2 12 10 
2 10 0 0 0 0 1 11 
8 7 0 0 0 0 1 13 
3 10 0 0 0 0 1 13 
0 0 0 0 0 0 1 26 
0 0 0 0 0 0 4 15 17 18 21 
2 0 0 0 2 0 1 16 
10 0 0 0 8 0 1 19 
3 0 0 0 6 0 1 19 
7 0 0 0 6 0 2 19 58 
4 0 0 0 10 0 1 20 
5 0 0 0 9 0 1 22 
3 0 0 0 8 0 1 22 
3 0 0 0 6 0 1 23 
5 0 0 0 10 0 1 24 
2 0 0 0 10 0 1 25 
0 0 0 0 0 0 1 26 
0 0 0 0 0 0 2 27 39 
0 0 0 0 0 0 3 28 37 123 
8 4 0 0 0 0 3 36 32 29 
2 5 0 0 0 0 1 30 
9 10 0 0 0 0 1 31 
4 6 0 0 0 0 1 33 
7 5 0 0 0 0 1 33 
4 10 0 0 0 0 1 34 
2 9 0 0 0 0 1 35 
7 10 0 0 0 0 1 38 
10 10 0 0 0 0 1 38 
5 6 0 0 0 0 1 38 
0 0 0 0 0 0 1 51 
0 0 0 0 0 0 3 40 43 44 
7 0 0 0 0 3 1 41 
7 0 0 0 0 8 1 42 
10 0 0 0 0 5 1 45 
2 0 0 0 0 8 1 45 
10 0 0 0 0 10 2 45 96 
4 0 0 0 0 10 1 46 
8 0 0 0 0 6 2 49 47 
3 0 0 0 0 10 1 48 
10 0 0 0 0 8 1 50 
3 0 0 0 0 7 1 50 
0 0 0 0 0 0 1 51 
0 0 0 0 0 0 2 52 64 
0 0 0 0 0 0 3 53 57 61 
10 0 6 0 0 0 2 60 54 
9 0 2 0 0 0 1 55 
8 0 7 0 0 0 1 56 
10 0 10 0 0 0 1 58 
10 0 9 0 0 0 1 58 
8 0 4 0 0 0 1 59 
6 0 10 0 0 0 1 62 
4 0 7 0 0 0 1 62 
6 0 10 0 0 0 1 62 
6 0 10 0 0 0 1 63 
0 0 0 0 0 0 1 76 
0 0 0 0 0 0 2 65 68 
8 4 0 0 0 0 2 69 66 
6 6 0 0 0 0 1 67 
6 5 0 0 0 0 2 72 70 
1 9 0 0 0 0 1 69 
9 7 0 0 0 0 2 72 71 
1 10 0 0 0 0 1 71 
8 7 0 0 0 0 1 73 
10 10 0 0 0 0 1 73 
10 10 0 0 0 0 1 74 
8 7 0 0 0 0 1 75 
0 0 0 0 0 0 1 76 
0 0 0 0 0 0 2 77 89 
0 0 0 0 0 0 2 78 79 
8 0 0 3 0 0 2 83 80 
8 0 0 9 0 0 2 83 81 
6 0 0 9 0 0 1 81 
5 0 0 9 0 0 1 82 
3 0 0 10 0 0 1 84 
3 0 0 10 0 0 1 84 
10 0 0 5 0 0 2 87 85 
4 0 0 7 0 0 1 86 
10 0 0 4 0 0 1 88 
2 0 0 9 0 0 1 88 
0 0 0 0 0 0 1 101 
0 0 0 0 0 0 1 90 
9 0 2 0 0 0 1 91 
6 0 6 0 0 0 3 96 95 92 
7 0 10 0 0 0 1 93 
1 0 7 0 0 0 1 94 
3 0 10 0 0 0 2 99 97 
2 0 6 0 0 0 2 99 98 
1 0 10 0 0 0 1 97 
6 0 4 0 0 0 1 98 
8 0 10 0 0 0 1 100 
8 0 10 0 0 0 1 100 
0 0 0 0 0 0 1 101 
0 0 0 0 0 0 2 102 114 
0 0 0 0 0 0 1 103 
9 0 0 2 0 0 1 104 
8 0 0 7 0 0 1 105 
10 0 0 8 0 0 2 107 106 
10 0 0 6 0 0 2 109 108 
8 0 0 9 0 0 1 108 
1 0 0 10 0 0 2 112 110 
3 0 0 9 0 0 1 110 
8 0 0 9 0 0 1 111 
8 0 0 5 0 0 1 113 
9 0 0 10 0 0 1 113 
0 0 0 0 0 0 1 126 
0 0 0 0 0 0 1 115 
6 0 0 0 2 0 1 116 
7 0 0 0 7 0 4 124 123 122 117 
3 0 0 0 10 0 1 118 
9 0 0 0 9 0 1 119 
4 0 0 0 6 0 1 120 
8 0 0 0 10 0 1 121 
1 0 0 0 8 0 1 125 
3 0 0 0 6 0 1 125 
6 0 0 0 9 0 1 125 
6 0 0 0 8 0 1 125 
0 0 0 0 0 0 1 126 
0 0 0 0 0 0 0 
